50
120
96
92
92
91
91
90
89
88
83
83
81
79
77
76
76
71
70
68
68
66
63
63
63
62
60
60
58
57
53
53
52
52
49
47
45
44
41
38
37
34
33
32
31
29
27
26
25
23
21
21
